51	3

10	12	10	

0	0	0	0	3	2	3	4	
8	5	2	2	2	5	6	
5	3	5	2	3	6	7	8	
2	5	4	3	2	5	6	
5	4	1	4	2	10	13	
4	5	5	4	2	9	13	
2	3	5	2	2	10	13	
1	2	4	4	3	9	10	11	
2	3	2	2	3	12	14	16	
4	3	3	2	1	14	
5	4	1	4	1	15	
7	2	2	2	2	17	19	
2	3	2	4	1	15	
7	1	4	4	1	19	
5	1	5	4	1	18	
2	5	5	4	1	18	
3	5	3	3	1	21	
2	4	5	4	1	21	
1	3	2	3	1	20	
2	2	4	6	1	22	
2	1	6	2	3	22	23	24	
8	5	2	2	2	25	26	
5	3	5	2	3	26	27	28	
2	5	4	3	2	25	26	
5	4	1	4	2	30	33	
4	5	5	4	2	29	33	
2	3	5	2	2	30	33	
1	2	4	4	3	29	30	31	
2	3	2	2	3	32	34	36	
4	3	3	2	1	34	
5	4	1	4	1	35	
7	2	2	2	2	37	39	
2	3	2	4	1	35	
7	1	4	4	1	39	
5	1	5	4	1	38	
2	5	5	4	1	38	
3	5	3	3	1	41	
2	4	5	4	1	41	
1	3	2	3	1	40	
2	2	4	6	1	42	
2	1	6	2	3	42	43	44	
8	5	2	2	2	45	46	
5	3	5	2	3	46	47	48	
2	5	4	3	2	45	46	
5	4	1	4	1	50	
4	5	5	4	1	49	
2	3	5	2	1	50	
1	2	4	4	2	49	50	
2	3	2	2	1	51	
4	3	3	2	1	51	
0	0	0	0	0	
